c leafs=72, vars=18, seed=1, tickle=1, pretickle_path=1
p cnf 890 2401                                                                
e 19 20 21 22 23 24 25 26 27 28 29 30 31 32 33 34 35 36 37 38 39 40 41 42 43 44 45 46 47 48 49 50 51 52 53 54 55 56 57 58 59 60 61 62 63 64 65 66 67 68 69 70 71 72 73 74 75 76 77 78 79 80 81 82 83 84 85 86 87 88 89 90  0
a 1 2 3 4 5 6 7 8 9 10 11 12 13 14 15 16 17 18  0
e 91 92 93 94 95 96 97 98 99 100 101 102 103 104 105 106 107 108 109 110 111 112 113 114 115 116 117 118 119 120 121 122 123 124 125 126 127 128 129 130 131 132 133 134 135 136 137 138 139 140 141 142 143 144 145 146 147 148 149 150 151 152 153 154 155 156 157 158 159 160 161 162 163 164 165 166 167 168 169 170 171 172 173 174 175 176 177 178 179 180 181 182 183 184 185 186 187 188 189 190 191 192 193 194 195 196 197 198 199 200 201 202 203 204 205 206 207 208 209 210 211 212 213 214 215 216 217 218 219 220 221 222 223 224 225 226 227 228 229 230 231 232 233 234 235 236 237 238 239 240 241 242 243 244 245 246 247 248 249 250 251 252 253 254 255 256 257 258 259 260 261 262 263 264 265 266 267 268 269 270 271 272 273 274 275 276 277 278 279 280 281 282 283 284 285 286 287 288 289 290 291 292 293 294 295 296 297 298 299 300 301 302 303 304 305 306 307 308 309 310 311 312 313 314 315 316 317 318 319 320 321 322 323 324 325 326 327 328 329 330 331 332 333 334 335 336 337 338 339 340 341 342 343 344 345 346 347 348 349 350 351 352 353 354 355 356 357 358 359 360 361 362 363 364 365 366 367 368 369 370 371 372 373 374 375 376 377 378 379 380 381 382 383 384 385 386 387 388 389 390 391 392 393 394 395 396 397 398 399 400 401 402 403 404 405 406 407 408 409 410 411 412 413 414 415 416 417 418 419 420 421 422 423 424 425 426 427 428 429 430 431 432 433 434 435 436 437 438 439 440 441 442 443 444 445 446 447 448 449 450 451 452 453 454 455 456 457 458 459 460 461 462 463 464 465 466 467 468 469 470 471 472 473 474 475 476 477 478 479 480 481 482 483 484 485 486 487 488 489 490 491 492 493 494 495 496 497 498 499 500 501 502 503 504 505 506 507 508 509 510 511 512 513 514 515 516 517 518 519 520 521 522 523 524 525 526 527 528 529 530 531 532 533 534 535 536 537 538 539 540 541 542 543 544 545 546 547 548 549 550 551 552 553 554 555 556 557 558 559 560 561 562 563 564 565 566 567 568 569 570 571 572 573 574 575 576 577 578 579 580 581 582 583 584 585 586 587 588 589 590 591 592 593 594 595 596 597 598 599 600 601 602 603 604 605 606 607 608 609 610 611 612 613 614 615 616 617 618 619 620 621 622 623 624 625 626 627 628 629 630 631 632 633 634 635 636 637 638 639 640 641 642 643 644 645 646 647 648 649 650 651 652 653 654 655 656 657 658 659 660 661 662 663 664 665 666 667 668 669 670 671 672 673 674 675 676 677 678 679 680 681 682 683 684 685 686 687 688 689 690 691 692 693 694 695 696 697 698 699 700 701 702 703 704 705 706 707 708 709 710 711 712 713 714 715 716 717 718 719 720 721 722 723 724 725 726 727 728 729 730 731 732 733 734 735 736 737 738 739 740 741 742 743 744 745 746 747 748 749 750 751 752 753 754 755 756 757 758 759 760 761 762 763 764 765 766 767 768 769 770 771 772 773 774 775 776 777 778 779 780 781 782 783 784 785 786 787 788 789 790 791 792 793 794 795 796 797 798 799 800 801 802 803 804 805 806 807 808 809 810 811 812 813 814 815 816 817 818 819 820 821 822 823 824 825 826 827 828 829 830 831 832 833 834 835 836 837 838 839 840 841 842 843 844 845 846 847 848 849 850 851 852 853 854 855 856 857 858 859 860 861 862 863 864 865 866 867 868 869 870 871 872 873 874 875 876 877 878 879 880 881 882 883 884 885 886 887 888 889 890  0
890  0
91 74 -7  0
-91 -74  0
-91 7  0
92 4 -74  0
-92 -4  0
-92 74  0
93 -14 -73  0
-93 14  0
-93 73  0
94 73 -18  0
-94 -73  0
-94 18  0
95 75 16  0
-95 -75  0
-95 -16  0
96 -12 -75  0
-96 12  0
-96 75  0
97 -14 -77  0
-97 14  0
-97 77  0
98 77 3  0
-98 -77  0
-98 -3  0
99 76 8  0
-99 -76  0
-99 -8  0
100 2 -76  0
-100 -2  0
-100 76  0
101 81 -14  0
-101 -81  0
-101 14  0
102 8 -81  0
-102 -8  0
-102 81  0
103 80 4  0
-103 -80  0
-103 -4  0
104 -5 -80  0
-104 5  0
-104 80  0
-105 -2 78  0
105 2  0
105 -78  0
-106 -78 -11  0
106 78  0
106 11  0
-107 -79 17  0
107 79  0
107 -17  0
-108 -10 79  0
108 10  0
108 -79  0
-109 13 88  0
109 -13  0
109 -88  0
-110 -88 6  0
110 88  0
110 -6  0
-111 11 87  0
111 -11  0
111 -87  0
-112 -87 -6  0
112 87  0
112 6  0
113 -6 -90  0
-113 6  0
-113 90  0
114 90 -14  0
-114 -90  0
-114 14  0
115 18 -89  0
-115 -18  0
-115 89  0
116 89 7  0
-116 -89  0
-116 -7  0
117 85 12  0
-117 -85  0
-117 -12  0
118 -10 -85  0
-118 10  0
-118 85  0
119 -8 -86  0
-119 8  0
-119 86  0
120 86 -15  0
-120 -86  0
-120 15  0
121 82 -9  0
-121 -82  0
-121 9  0
122 -13 -82  0
-122 13  0
-122 82  0
123 84 -3  0
-123 -84  0
-123 3  0
124 8 -84  0
-124 -8  0
-124 84  0
125 7 -83  0
-125 -7  0
-125 83  0
126 83 -5  0
-126 -83  0
-126 5  0
127 68 -15  0
-127 -68  0
-127 15  0
128 8 -68  0
-128 -8  0
-128 68  0
129 -11 -70  0
-129 11  0
-129 70  0
130 70 -7  0
-130 -70  0
-130 7  0
131 -17 -69  0
-131 17  0
-131 69  0
132 69 -13  0
-132 -69  0
-132 13  0
-133 -2 72  0
133 2  0
133 -72  0
-134 -72 -7  0
134 72  0
134 7  0
-135 -71 16  0
135 71  0
135 -16  0
-136 -5 71  0
136 5  0
136 -71  0
-137 -14 65  0
137 14  0
137 -65  0
-138 -65 -5  0
138 65  0
138 5  0
-139 11 64  0
139 -11  0
139 -64  0
-140 -64 12  0
140 64  0
140 -12  0
-141 -66 8  0
141 66  0
141 -8  0
-142 12 66  0
142 -12  0
142 -66  0
-143 15 67  0
143 -15  0
143 -67  0
-144 -67 -10  0
144 67  0
144 10  0
145 -8 -57  0
-145 8  0
-145 57  0
146 57 -13  0
-146 -57  0
-146 13  0
147 10 -58  0
-147 -10  0
-147 58  0
148 58 17  0
-148 -58  0
-148 -17  0
-149 -55 4  0
149 55  0
149 -4  0
-150 6 55  0
150 -6  0
150 -55  0
-151 -56 11  0
151 56  0
151 -11  0
-152 4 56  0
152 -4  0
152 -56  0
-153 -59 6  0
153 59  0
153 -6  0
-154 -18 59  0
154 18  0
154 -59  0
-155 -60 14  0
155 60  0
155 -14  0
-156 -11 60  0
156 11  0
156 -60  0
157 61 -12  0
-157 -61  0
-157 12  0
158 -10 -61  0
-158 10  0
-158 61  0
159 1 -63  0
-159 -1  0
-159 63  0
160 63 -16  0
-160 -63  0
-160 16  0
161 62 -3  0
-161 -62  0
-161 3  0
162 17 -62  0
-162 -17  0
-162 62  0
-163 -35 -4  0
163 35  0
163 4  0
-164 15 35  0
164 -15  0
164 -35  0
-165 6 36  0
165 -6  0
165 -36  0
-166 -36 -14  0
166 36  0
166 14  0
-167 3 34  0
167 -3  0
167 -34  0
-168 -34 -18  0
168 34  0
168 18  0
-169 -33 -12  0
169 33  0
169 12  0
-170 5 33  0
170 -5  0
170 -33  0
-171 18 31  0
171 -18  0
171 -31  0
-172 -31 -3  0
172 31  0
172 3  0
-173 -32 -5  0
173 32  0
173 5  0
-174 -2 32  0
174 2  0
174 -32  0
-175 -12 30  0
175 12  0
175 -30  0
-176 -30 -17  0
176 30  0
176 17  0
177 -2 -29  0
-177 2  0
-177 29  0
178 29 -6  0
-178 -29  0
-178 6  0
179 28 4  0
-179 -28  0
-179 -4  0
180 11 -28  0
-180 -11  0
-180 28  0
181 20 9  0
-181 -20  0
-181 -9  0
182 7 -20  0
-182 -7  0
-182 20  0
183 19 -8  0
-183 -19  0
-183 8  0
184 -16 -19  0
-184 16  0
-184 19  0
185 -6 -21  0
-185 6  0
-185 21  0
186 21 13  0
-186 -21  0
-186 -13  0
187 -2 -22  0
-187 2  0
-187 22  0
188 22 -1  0
-188 -22  0
-188 1  0
189 23 10  0
-189 -23  0
-189 -10  0
190 -11 -23  0
-190 11  0
-190 23  0
-191 -7 27  0
191 7  0
191 -27  0
-192 -27 17  0
192 27  0
192 -17  0
-193 -12 26  0
193 12  0
193 -26  0
-194 -26 9  0
194 26  0
194 -9  0
195 15 -24  0
-195 -15  0
-195 24  0
196 24 5  0
-196 -24  0
-196 -5  0
197 25 8  0
-197 -25  0
-197 -8  0
198 14 -25  0
-198 -14  0
-198 25  0
199 42 -5  0
-199 -42  0
-199 5  0
200 4 -42  0
-200 -4  0
-200 42  0
201 43 -9  0
-201 -43  0
-201 9  0
202 16 -43  0
-202 -16  0
-202 43  0
203 -4 -45  0
-203 4  0
-203 45  0
204 45 -17  0
-204 -45  0
-204 17  0
205 44 -18  0
-205 -44  0
-205 18  0
206 8 -44  0
-206 -8  0
-206 44  0
-207 -40 -5  0
207 40  0
207 5  0
-208 8 40  0
208 -8  0
208 -40  0
-209 4 41  0
209 -4  0
209 -41  0
-210 -41 3  0
210 41  0
210 -3  0
-211 -37 3  0
211 37  0
211 -3  0
-212 16 37  0
212 -16  0
212 -37  0
-213 -38 -11  0
213 38  0
213 11  0
-214 -3 38  0
214 3  0
214 -38  0
-215 12 39  0
215 -12  0
215 -39  0
-216 -39 -2  0
216 39  0
216 2  0
-217 -46 16  0
217 46  0
217 -16  0
-218 -18 46  0
218 18  0
218 -46  0
-219 -2 47  0
219 2  0
219 -47  0
-220 -47 -11  0
220 47  0
220 11  0
221 2 -49  0
-221 -2  0
-221 49  0
222 49 9  0
-222 -49  0
-222 -9  0
223 -1 -48  0
-223 1  0
-223 48  0
224 48 16  0
-224 -48  0
-224 -16  0
225 -3 -50  0
-225 3  0
-225 50  0
226 50 -14  0
-226 -50  0
-226 14  0
-227 -51 -4  0
227 51  0
227 4  0
-228 7 51  0
228 -7  0
228 -51  0
-229 -11 52  0
229 11  0
229 -52  0
-230 -52 -10  0
230 52  0
230 10  0
-231 6 54  0
231 -6  0
231 -54  0
-232 -54 -1  0
232 54  0
232 1  0
-233 -53 16  0
233 53  0
233 -16  0
-234 -4 53  0
234 4  0
234 -53  0
235 -11 -13  0
-235 11  0
-235 13  0
236 13 -3  0
-236 -13  0
-236 3  0
237 -7 -13  0
-237 7  0
-237 13  0
238 13 7  0
-238 -13  0
-238 -7  0
239 4 -14  0
-239 -4  0
-239 14  0
240 14 -4  0
-240 -14  0
-240 4  0
241 2 -17  0
-241 -2  0
-241 17  0
242 17 -2  0
-242 -17  0
-242 2  0
243 18 7  0
-243 -18  0
-243 -7  0
244 -7 -18  0
-244 7  0
-244 18  0
245 -2 -3  0
-245 2  0
-245 3  0
-246 11 13  0
246 -11  0
246 -13  0
-247 -13 7  0
247 13  0
247 -7  0
-248 -7 13  0
248 7  0
248 -13  0
-249 -13 -3  0
249 13  0
249 3  0
250 -11 -18  0
-250 11  0
-250 18  0
251 18 11  0
-251 -18  0
-251 -11  0
-252 -17 -2  0
252 17  0
252 2  0
-253 2 17  0
253 -2  0
253 -17  0
-254 4 14  0
254 -4  0
254 -14  0
-255 -14 -4  0
255 14  0
255 4  0
-256 -14 7  0
256 14  0
256 -7  0
-257 -7 14  0
257 7  0
257 -14  0
-258 -10 8  0
258 10  0
258 -8  0
-259 -8 10  0
259 8  0
259 -10  0
-260 -10 -8  0
260 10  0
260 8  0
-261 8 10  0
261 -8  0
261 -10  0
-262 -11 6  0
262 11  0
262 -6  0
-263 -6 11  0
263 6  0
263 -11  0
-264 -14 11  0
264 14  0
264 -11  0
-265 -11 14  0
265 11  0
265 -14  0
-266 7 11  0
266 -7  0
266 -11  0
-267 -11 -7  0
267 11  0
267 7  0
268 11 -16  0
-268 -11  0
-268 16  0
-269 -5 16  0
269 5  0
269 -16  0
-270 -16 5  0
270 16  0
270 -5  0
271 4 -6  0
-271 -4  0
-271 6  0
272 6 -4  0
-272 -6  0
-272 4  0
-273 -8 15  0
273 8  0
273 -15  0
-274 -15 8  0
274 15  0
274 -8  0
-275 -16 -13  0
275 16  0
275 13  0
-276 13 16  0
276 -13  0
276 -16  0
277 17 5  0
-277 -17  0
-277 -5  0
278 -5 -17  0
-278 5  0
-278 17  0
279 18 -17  0
-279 -18  0
-279 17  0
-280 -11 7  0
280 11  0
280 -7  0
-281 -7 11  0
281 7  0
281 -11  0
-282 91 92  0
282 -91  0
282 -92  0
-283 93 94  0
283 -93  0
283 -94  0
-284 95 96  0
284 -95  0
284 -96  0
-285 97 98  0
285 -97  0
285 -98  0
-286 99 100  0
286 -99  0
286 -100  0
-287 101 102  0
287 -101  0
287 -102  0
-288 103 104  0
288 -103  0
288 -104  0
289 -105 -106  0
-289 105  0
-289 106  0
290 -107 -108  0
-290 107  0
-290 108  0
291 -109 -110  0
-291 109  0
-291 110  0
292 -111 -112  0
-292 111  0
-292 112  0
-293 113 114  0
293 -113  0
293 -114  0
-294 115 116  0
294 -115  0
294 -116  0
-295 117 118  0
295 -117  0
295 -118  0
-296 119 120  0
296 -119  0
296 -120  0
-297 121 122  0
297 -121  0
297 -122  0
-298 123 124  0
298 -123  0
298 -124  0
-299 125 126  0
299 -125  0
299 -126  0
-300 127 128  0
300 -127  0
300 -128  0
-301 129 130  0
301 -129  0
301 -130  0
-302 131 132  0
302 -131  0
302 -132  0
303 -133 -134  0
-303 133  0
-303 134  0
304 -135 -136  0
-304 135  0
-304 136  0
305 -137 -138  0
-305 137  0
-305 138  0
306 -139 -140  0
-306 139  0
-306 140  0
307 -141 -142  0
-307 141  0
-307 142  0
308 -143 -144  0
-308 143  0
-308 144  0
-309 145 146  0
309 -145  0
309 -146  0
-310 147 148  0
310 -147  0
310 -148  0
311 -149 -150  0
-311 149  0
-311 150  0
312 -151 -152  0
-312 151  0
-312 152  0
313 -153 -154  0
-313 153  0
-313 154  0
314 -155 -156  0
-314 155  0
-314 156  0
-315 157 158  0
315 -157  0
315 -158  0
-316 159 160  0
316 -159  0
316 -160  0
-317 161 162  0
317 -161  0
317 -162  0
318 -163 -164  0
-318 163  0
-318 164  0
319 -165 -166  0
-319 165  0
-319 166  0
320 -167 -168  0
-320 167  0
-320 168  0
321 -169 -170  0
-321 169  0
-321 170  0
322 -171 -172  0
-322 171  0
-322 172  0
323 -173 -174  0
-323 173  0
-323 174  0
324 -175 -176  0
-324 175  0
-324 176  0
-325 177 178  0
325 -177  0
325 -178  0
-326 179 180  0
326 -179  0
326 -180  0
-327 181 182  0
327 -181  0
327 -182  0
-328 183 184  0
328 -183  0
328 -184  0
-329 185 186  0
329 -185  0
329 -186  0
-330 187 188  0
330 -187  0
330 -188  0
-331 189 190  0
331 -189  0
331 -190  0
332 -191 -192  0
-332 191  0
-332 192  0
333 -193 -194  0
-333 193  0
-333 194  0
-334 195 196  0
334 -195  0
334 -196  0
-335 197 198  0
335 -197  0
335 -198  0
-336 199 200  0
336 -199  0
336 -200  0
-337 201 202  0
337 -201  0
337 -202  0
-338 203 204  0
338 -203  0
338 -204  0
-339 205 206  0
339 -205  0
339 -206  0
340 -207 -208  0
-340 207  0
-340 208  0
341 -209 -210  0
-341 209  0
-341 210  0
342 -211 -212  0
-342 211  0
-342 212  0
343 -213 -214  0
-343 213  0
-343 214  0
344 -215 -216  0
-344 215  0
-344 216  0
345 -217 -218  0
-345 217  0
-345 218  0
346 -219 -220  0
-346 219  0
-346 220  0
-347 221 222  0
347 -221  0
347 -222  0
-348 223 224  0
348 -223  0
348 -224  0
-349 225 226  0
349 -225  0
349 -226  0
350 -227 -228  0
-350 227  0
-350 228  0
351 -229 -230  0
-351 229  0
-351 230  0
352 -231 -232  0
-352 231  0
-352 232  0
353 -233 -234  0
-353 233  0
-353 234  0
-354 -15 235  0
354 15  0
354 -235  0
-355 15 -235  0
355 -15  0
355 235  0
-356 237 238  0
356 -237  0
356 -238  0
-357 239 240  0
357 -239  0
357 -240  0
-358 241 242  0
358 -241  0
358 -242  0
-359 243 244  0
359 -243  0
359 -244  0
360 -246 235  0
-360 246  0
-360 -235  0
361 -247 -248  0
-361 247  0
-361 248  0
-362 250 251  0
362 -250  0
362 -251  0
363 -252 -253  0
-363 252  0
-363 253  0
364 -254 -255  0
-364 254  0
-364 255  0
365 -256 -257  0
-365 256  0
-365 257  0
366 -258 -259  0
-366 258  0
-366 259  0
367 -260 -261  0
-367 260  0
-367 261  0
368 -262 -263  0
-368 262  0
-368 263  0
369 -264 -265  0
-369 264  0
-369 265  0
370 -266 -267  0
-370 266  0
-370 267  0
-371 -2 268  0
371 2  0
371 -268  0
-372 2 -268  0
372 -2  0
372 268  0
373 -269 -270  0
-373 269  0
-373 270  0
-374 2 268  0
374 -2  0
374 -268  0
-375 -2 -268  0
375 2  0
375 268  0
-376 271 272  0
376 -271  0
376 -272  0
377 -273 -274  0
-377 273  0
-377 274  0
378 -275 -276  0
-378 275  0
-378 276  0
-379 277 278  0
379 -277  0
379 -278  0
380 -280 -281  0
-380 280  0
-380 281  0
-381 282 283  0
381 -282  0
381 -283  0
-382 -283 -282  0
382 283  0
382 282  0
-383 285 286  0
383 -285  0
383 -286  0
-384 287 288  0
384 -287  0
384 -288  0
-385 -288 -287  0
385 288  0
385 287  0
-386 289 290  0
386 -289  0
386 -290  0
-387 -290 -289  0
387 290  0
387 289  0
388 -291 -292  0
-388 291  0
-388 292  0
389 291 292  0
-389 -291  0
-389 -292  0
390 -293 -294  0
-390 293  0
-390 294  0
391 294 293  0
-391 -294  0
-391 -293  0
392 -295 -296  0
-392 295  0
-392 296  0
393 296 295  0
-393 -296  0
-393 -295  0
-394 298 299  0
394 -298  0
394 -299  0
395 -301 -302  0
-395 301  0
-395 302  0
396 -303 -304  0
-396 303  0
-396 304  0
397 303 304  0
-397 -303  0
-397 -304  0
398 -305 -306  0
-398 305  0
-398 306  0
399 306 305  0
-399 -306  0
-399 -305  0
400 -307 -308  0
-400 307  0
-400 308  0
401 308 307  0
-401 -308  0
-401 -307  0
402 -309 -310  0
-402 309  0
-402 310  0
403 309 310  0
-403 -309  0
-403 -310  0
404 -311 -312  0
-404 311  0
-404 312  0
405 311 312  0
-405 -311  0
-405 -312  0
406 -313 -314  0
-406 313  0
-406 314  0
407 314 313  0
-407 -314  0
-407 -313  0
408 -316 -317  0
-408 316  0
-408 317  0
-409 318 319  0
409 -318  0
409 -319  0
-410 -319 -318  0
410 319  0
410 318  0
-411 320 321  0
411 -320  0
411 -321  0
-412 -321 -320  0
412 321  0
412 320  0
413 -322 -323  0
-413 322  0
-413 323  0
-414 325 326  0
414 -325  0
414 -326  0
-415 -325 -326  0
415 325  0
415 326  0
-416 327 328  0
416 -327  0
416 -328  0
-417 330 331  0
417 -330  0
417 -331  0
-418 -331 -330  0
418 331  0
418 330  0
-419 332 333  0
419 -332  0
419 -333  0
-420 -332 -333  0
420 332  0
420 333  0
-421 334 335  0
421 -334  0
421 -335  0
-422 -334 -335  0
422 334  0
422 335  0
-423 336 337  0
423 -336  0
423 -337  0
-424 -337 -336  0
424 337  0
424 336  0
-425 338 339  0
425 -338  0
425 -339  0
-426 -338 -339  0
426 338  0
426 339  0
-427 340 341  0
427 -340  0
427 -341  0
-428 -341 -340  0
428 341  0
428 340  0
429 -342 -343  0
-429 342  0
-429 343  0
430 -345 -346  0
-430 345  0
-430 346  0
431 345 346  0
-431 -345  0
-431 -346  0
432 -347 -348  0
-432 347  0
-432 348  0
433 -350 -351  0
-433 350  0
-433 351  0
434 350 351  0
-434 -350  0
-434 -351  0
435 -352 -353  0
-435 352  0
-435 353  0
436 352 353  0
-436 -352  0
-436 -353  0
437 -354 -355  0
-437 354  0
-437 355  0
438 3 -356  0
-438 -3  0
-438 356  0
-439 357 358  0
439 -357  0
439 -358  0
440 -12 -359  0
-440 12  0
-440 359  0
441 12 -359  0
-441 -12  0
-441 359  0
-442 14 360  0
442 -14  0
442 -360  0
-443 -14 360  0
443 14  0
443 -360  0
-444 3 361  0
444 -3  0
444 -361  0
-445 363 364  0
445 -363  0
445 -364  0
446 13 -366  0
-446 -13  0
-446 366  0
447 -13 -366  0
-447 13  0
-447 366  0
448 13 -368  0
-448 -13  0
-448 368  0
449 -13 -368  0
-449 13  0
-449 368  0
450 8 -369  0
-450 -8  0
-450 369  0
451 -8 -369  0
-451 8  0
-451 369  0
-452 -16 370  0
452 16  0
452 -370  0
-453 16 370  0
453 -16  0
453 -370  0
454 -371 -372  0
-454 371  0
-454 372  0
-455 8 373  0
455 -8  0
455 -373  0
-456 -8 373  0
456 8  0
456 -373  0
457 -374 -375  0
-457 374  0
-457 375  0
458 7 -377  0
-458 -7  0
-458 377  0
459 -7 -377  0
-459 7  0
-459 377  0
-460 -7 378  0
460 7  0
460 -378  0
461 -18 -379  0
-461 18  0
-461 379  0
462 16 -380  0
-462 -16  0
-462 380  0
463 -16 -380  0
-463 16  0
-463 380  0
-464 -13 367  0
464 13  0
464 -367  0
-465 13 367  0
465 -13  0
465 -367  0
466 -381 -382  0
-466 381  0
-466 382  0
-467 284 383  0
467 -284  0
467 -383  0
-468 -383 -284  0
468 383  0
468 284  0
469 -384 -385  0
-469 384  0
-469 385  0
470 -386 -387  0
-470 386  0
-470 387  0
-471 388 389  0
471 -388  0
471 -389  0
-472 390 391  0
472 -390  0
472 -391  0
-473 392 393  0
473 -392  0
473 -393  0
474 -297 -394  0
-474 297  0
-474 394  0
475 394 297  0
-475 -394  0
-475 -297  0
476 -300 -395  0
-476 300  0
-476 395  0
477 300 395  0
-477 -300  0
-477 -395  0
-478 396 397  0
478 -396  0
478 -397  0
-479 398 399  0
479 -398  0
479 -399  0
-480 400 401  0
480 -400  0
480 -401  0
-481 402 403  0
481 -402  0
481 -403  0
-482 404 405  0
482 -404  0
482 -405  0
-483 406 407  0
483 -406  0
483 -407  0
484 -315 -408  0
-484 315  0
-484 408  0
485 408 315  0
-485 -408  0
-485 -315  0
486 -409 -410  0
-486 409  0
-486 410  0
487 -411 -412  0
-487 411  0
-487 412  0
-488 413 324  0
488 -413  0
488 -324  0
-489 -324 -413  0
489 324  0
489 413  0
490 -414 -415  0
-490 414  0
-490 415  0
-491 416 329  0
491 -416  0
491 -329  0
-492 -416 -329  0
492 416  0
492 329  0
493 -417 -418  0
-493 417  0
-493 418  0
494 -419 -420  0
-494 419  0
-494 420  0
495 -421 -422  0
-495 421  0
-495 422  0
496 -423 -424  0
-496 423  0
-496 424  0
497 -425 -426  0
-497 425  0
-497 426  0
498 -427 -428  0
-498 427  0
-498 428  0
-499 429 344  0
499 -429  0
499 -344  0
-500 -344 -429  0
500 344  0
500 429  0
-501 430 431  0
501 -430  0
501 -431  0
502 -432 -349  0
-502 432  0
-502 349  0
503 432 349  0
-503 -432  0
-503 -349  0
-504 433 434  0
504 -433  0
504 -434  0
-505 435 436  0
505 -435  0
505 -436  0
-506 236 438  0
506 -236  0
506 -438  0
507 -440 -245  0
-507 440  0
-507 245  0
508 245 -441  0
-508 -245  0
-508 441  0
-509 -7 442  0
509 7  0
509 -442  0
-510 7 443  0
510 -7  0
510 -443  0
511 -444 -249  0
-511 444  0
-511 249  0
-512 -7 446  0
512 7  0
512 -446  0
-513 7 447  0
513 -7  0
513 -447  0
-514 -3 447  0
514 3  0
514 -447  0
-515 -10 448  0
515 10  0
515 -448  0
-516 10 449  0
516 -10  0
516 -449  0
-517 -15 450  0
517 15  0
517 -450  0
-518 15 451  0
518 -15  0
518 -451  0
-519 -1 452  0
519 1  0
519 -452  0
-520 1 453  0
520 -1  0
520 -453  0
-521 -17 455  0
521 17  0
521 -455  0
-522 17 456  0
522 -17  0
522 -456  0
-523 -9 458  0
523 9  0
523 -458  0
-524 9 459  0
524 -9  0
524 -459  0
525 -460 -247  0
-525 460  0
-525 247  0
-526 461 279  0
526 -461  0
526 -279  0
-527 1 462  0
527 -1  0
527 -462  0
-528 -1 463  0
528 1  0
528 -463  0
-529 -3 464  0
529 3  0
529 -464  0
-530 -7 465  0
530 7  0
530 -465  0
-531 7 464  0
531 -7  0
531 -464  0
532 -467 -468  0
-532 467  0
-532 468  0
533 -469 -470  0
-533 469  0
-533 470  0
534 -471 -472  0
-534 471  0
-534 472  0
-535 474 475  0
535 -474  0
535 -475  0
-536 476 477  0
536 -476  0
536 -477  0
-537 479 480  0
537 -479  0
537 -480  0
538 -481 -482  0
-538 481  0
-538 482  0
-539 484 485  0
539 -484  0
539 -485  0
-540 486 487  0
540 -486  0
540 -487  0
541 -488 -489  0
-541 488  0
-541 489  0
542 -491 -492  0
-542 491  0
-542 492  0
-543 494 495  0
543 -494  0
543 -495  0
-544 496 497  0
544 -496  0
544 -497  0
545 -499 -500  0
-545 499  0
-545 500  0
-546 502 503  0
546 -502  0
546 -503  0
-547 504 505  0
547 -504  0
547 -505  0
-548 507 508  0
548 -507  0
548 -508  0
549 -509 -510  0
-549 509  0
-549 510  0
550 -512 -513  0
-550 512  0
-550 513  0
-551 511 367  0
551 -511  0
551 -367  0
552 -515 -516  0
-552 515  0
-552 516  0
553 -517 -518  0
-553 517  0
-553 518  0
554 -519 -520  0
-554 519  0
-554 520  0
555 -521 -522  0
-555 521  0
-555 522  0
556 -523 -524  0
-556 523  0
-556 524  0
-557 -1 525  0
557 1  0
557 -525  0
-558 1 525  0
558 -1  0
558 -525  0
-559 2 526  0
559 -2  0
559 -526  0
-560 -2 526  0
560 2  0
560 -526  0
561 -527 -528  0
-561 527  0
-561 528  0
562 -530 -531  0
-562 530  0
-562 531  0
563 -366 506  0
-563 366  0
-563 -506  0
564 -466 -532  0
-564 466  0
-564 532  0
565 -473 -535  0
-565 473  0
-565 535  0
-566 536 478  0
566 -536  0
566 -478  0
567 -483 -539  0
-567 483  0
-567 539  0
568 -541 -490  0
-568 541  0
-568 490  0
569 -542 -493  0
-569 542  0
-569 493  0
570 -498 -545  0
-570 498  0
-570 545  0
571 -501 -546  0
-571 501  0
-571 546  0
-572 439 548  0
572 -439  0
572 -548  0
-573 -548 -439  0
573 548  0
573 439  0
-574 -548 445  0
574 548  0
574 -445  0
-575 548 -445  0
575 -548  0
575 445  0
-576 3 550  0
576 -3  0
576 -550  0
-577 -13 551  0
577 13  0
577 -551  0
-578 13 551  0
578 -13  0
578 -551  0
-579 -18 554  0
579 18  0
579 -554  0
-580 18 -554  0
580 -18  0
580 554  0
-581 -1 554  0
581 1  0
581 -554  0
-582 -9 554  0
582 9  0
582 -554  0
-583 1 554  0
583 -1  0
583 -554  0
-584 11 557  0
584 -11  0
584 -557  0
-585 -11 558  0
585 11  0
585 -558  0
586 4 -559  0
-586 -4  0
-586 559  0
587 -4 -560  0
-587 4  0
-587 560  0
-588 -1 561  0
588 1  0
588 -561  0
-589 1 561  0
589 -1  0
589 -561  0
-590 -9 561  0
590 9  0
590 -561  0
-591 3 562  0
591 -3  0
591 -562  0
-592 -13 563  0
592 13  0
592 -563  0
-593 13 563  0
593 -13  0
593 -563  0
594 -564 -533  0
-594 564  0
-594 533  0
595 533 564  0
-595 -533  0
-595 -564  0
596 -534 -565  0
-596 534  0
-596 565  0
597 534 565  0
-597 -534  0
-597 -565  0
598 -566 -537  0
-598 566  0
-598 537  0
599 566 537  0
-599 -566  0
-599 -537  0
600 -538 -567  0
-600 538  0
-600 567  0
601 538 567  0
-601 -538  0
-601 -567  0
-602 540 568  0
602 -540  0
602 -568  0
-603 -540 -568  0
603 540  0
603 568  0
-604 569 543  0
604 -569  0
604 -543  0
-605 -569 -543  0
605 569  0
605 543  0
-606 544 570  0
606 -544  0
606 -570  0
-607 -544 -570  0
607 544  0
607 570  0
-608 571 547  0
608 -571  0
608 -547  0
-609 -547 -571  0
609 547  0
609 571  0
610 -572 -573  0
-610 572  0
-610 573  0
611 -574 -575  0
-611 574  0
-611 575  0
612 -576 -514  0
-612 576  0
-612 514  0
613 -579 -580  0
-613 579  0
-613 580  0
614 -584 -585  0
-614 584  0
-614 585  0
-615 586 587  0
615 -586  0
615 -587  0
616 -529 -591  0
-616 529  0
-616 591  0
-617 594 595  0
617 -594  0
617 -595  0
-618 596 597  0
618 -596  0
618 -597  0
-619 598 599  0
619 -598  0
619 -599  0
-620 600 601  0
620 -600  0
620 -601  0
621 -602 -603  0
-621 602  0
-621 603  0
622 -604 -605  0
-622 604  0
-622 605  0
623 -606 -607  0
-623 606  0
-623 607  0
624 -608 -609  0
-624 608  0
-624 609  0
-625 -8 610  0
625 8  0
625 -610  0
-626 8 610  0
626 -8  0
626 -610  0
-627 -506 610  0
627 506  0
627 -610  0
-628 13 612  0
628 -13  0
628 -612  0
-629 -13 612  0
629 13  0
629 -612  0
-630 612 -365  0
630 -612  0
630 365  0
-631 11 613  0
631 -11  0
631 -613  0
-632 -11 -613  0
632 11  0
632 613  0
633 -556 -614  0
-633 556  0
-633 614  0
634 614 556  0
-634 -614  0
-634 -556  0
-635 -11 613  0
635 11  0
635 -613  0
-636 11 -613  0
636 -11  0
636 613  0
-637 616 -365  0
637 -616  0
637 365  0
-638 13 616  0
638 -13  0
638 -616  0
-639 -13 616  0
639 13  0
639 -616  0
640 8 -611  0
-640 -8  0
-640 611  0
641 -8 -611  0
-641 8  0
-641 611  0
-642 611 -506  0
642 -611  0
642 506  0
-643 617 618  0
643 -617  0
643 -618  0
644 -619 -620  0
-644 619  0
-644 620  0
-645 621 622  0
645 -621  0
645 -622  0
646 -623 -624  0
-646 623  0
-646 624  0
-647 10 625  0
647 -10  0
647 -625  0
-648 -10 626  0
648 10  0
648 -626  0
-649 -10 625  0
649 10  0
649 -625  0
-650 10 626  0
650 -10  0
650 -626  0
651 -628 -577  0
-651 628  0
-651 577  0
652 -578 -629  0
-652 578  0
-652 629  0
653 -631 -632  0
-653 631  0
-653 632  0
-654 633 634  0
654 -633  0
654 -634  0
655 -635 -636  0
-655 635  0
-655 636  0
656 -592 -638  0
-656 592  0
-656 638  0
657 -593 -639  0
-657 593  0
-657 639  0
-658 10 640  0
658 -10  0
658 -640  0
-659 -10 641  0
659 10  0
659 -641  0
-660 10 641  0
660 -10  0
660 -641  0
-661 -10 640  0
661 10  0
661 -640  0
-662 643 644  0
662 -643  0
662 -644  0
-663 -644 -643  0
663 644  0
663 643  0
-664 645 646  0
664 -645  0
664 -646  0
-665 -646 -645  0
665 646  0
665 645  0
666 -647 -648  0
-666 647  0
-666 648  0
667 -649 -650  0
-667 649  0
-667 650  0
-668 -11 651  0
668 11  0
668 -651  0
-669 11 652  0
669 -11  0
669 -652  0
-670 -9 653  0
670 9  0
670 -653  0
-671 1 653  0
671 -1  0
671 -653  0
-672 -1 653  0
672 1  0
672 -653  0
673 -18 -654  0
-673 18  0
-673 654  0
674 18 -654  0
-674 -18  0
-674 654  0
675 6 -654  0
-675 -6  0
-675 654  0
676 -6 -654  0
-676 6  0
-676 654  0
-677 -9 655  0
677 9  0
677 -655  0
-678 1 655  0
678 -1  0
678 -655  0
-679 -1 655  0
679 1  0
679 -655  0
-680 -11 656  0
680 11  0
680 -656  0
-681 11 657  0
681 -11  0
681 -657  0
682 -658 -659  0
-682 658  0
-682 659  0
683 -660 -661  0
-683 660  0
-683 661  0
684 -662 -663  0
-684 662  0
-684 663  0
685 -664 -665  0
-685 664  0
-685 665  0
-686 506 666  0
686 -506  0
686 -666  0
-687 511 667  0
687 -511  0
687 -667  0
688 -668 -669  0
-688 668  0
-688 669  0
689 -581 -671  0
-689 581  0
-689 671  0
690 -672 -583  0
-690 672  0
-690 583  0
691 -12 -673  0
-691 12  0
-691 673  0
692 12 -674  0
-692 -12  0
-692 674  0
693 12 -673  0
-693 -12  0
-693 673  0
694 -12 -674  0
-694 12  0
-694 674  0
695 -588 -678  0
-695 588  0
-695 678  0
696 -679 -589  0
-696 679  0
-696 589  0
697 -680 -681  0
-697 680  0
-697 681  0
698 506 -682  0
-698 -506  0
-698 682  0
-699 506 683  0
699 -506  0
699 -683  0
700 -684 -685  0
-700 684  0
-700 685  0
701 -686 -627  0
-701 686  0
-701 627  0
-702 -549 687  0
702 549  0
702 -687  0
-703 365 688  0
703 -365  0
703 -688  0
-704 9 689  0
704 -9  0
704 -689  0
-705 9 690  0
705 -9  0
705 -690  0
-706 691 692  0
706 -691  0
706 -692  0
-707 693 694  0
707 -693  0
707 -694  0
-708 9 695  0
708 -9  0
708 -695  0
-709 9 696  0
709 -9  0
709 -696  0
-710 365 697  0
710 -365  0
710 -697  0
-711 698 -549  0
711 -698  0
711 549  0
712 -642 -699  0
-712 642  0
-712 699  0
-713 701 549  0
713 -701  0
713 -549  0
714 -703 -630  0
-714 703  0
-714 630  0
715 -670 -704  0
-715 670  0
-715 704  0
716 -582 -705  0
-716 582  0
-716 705  0
717 -376 -706  0
-717 376  0
-717 706  0
718 -6 -707  0
-718 6  0
-718 707  0
719 6 -707  0
-719 -6  0
-719 707  0
720 -677 -708  0
-720 677  0
-720 708  0
721 -709 -590  0
-721 709  0
-721 590  0
722 -637 -710  0
-722 637  0
-722 710  0
-723 712 549  0
723 -712  0
723 -549  0
724 -713 -702  0
-724 713  0
-724 702  0
725 -611 -714  0
-725 611  0
-725 714  0
-726 14 715  0
726 -14  0
726 -715  0
-727 -14 716  0
727 14  0
727 -716  0
728 -717 -615  0
-728 717  0
-728 615  0
-729 718 675  0
729 -718  0
729 -675  0
-730 676 719  0
730 -676  0
730 -719  0
-731 14 720  0
731 -14  0
731 -720  0
-732 -14 721  0
732 14  0
732 -721  0
-733 722 610  0
733 -722  0
733 -610  0
734 -711 -723  0
-734 711  0
-734 723  0
-735 724 362  0
735 -724  0
735 -362  0
-736 3 725  0
736 -3  0
736 -725  0
-737 -3 724  0
737 3  0
737 -724  0
-738 16 725  0
738 -16  0
738 -725  0
-739 16 724  0
739 -16  0
739 -724  0
-740 -3 725  0
740 3  0
740 -725  0
-741 3 724  0
741 -3  0
741 -724  0
-742 725 362  0
742 -725  0
742 -362  0
-743 2 725  0
743 -2  0
743 -725  0
-744 -2 725  0
744 2  0
744 -725  0
-745 -437 725  0
745 437  0
745 -725  0
746 -726 -727  0
-746 726  0
-746 727  0
747 4 -729  0
-747 -4  0
-747 729  0
748 -4 -730  0
-748 4  0
-748 730  0
749 -731 -732  0
-749 731  0
-749 732  0
-750 733 -437  0
750 -733  0
750 437  0
-751 734 362  0
751 -734  0
751 -362  0
-752 -3 734  0
752 3  0
752 -734  0
-753 3 733  0
753 -3  0
753 -733  0
-754 16 733  0
754 -16  0
754 -733  0
-755 16 734  0
755 -16  0
755 -734  0
-756 -3 733  0
756 3  0
756 -733  0
-757 3 734  0
757 -3  0
757 -734  0
-758 733 362  0
758 -733  0
758 -362  0
-759 -2 733  0
759 2  0
759 -733  0
-760 2 733  0
760 -2  0
760 -733  0
761 -736 -737  0
-761 736  0
-761 737  0
762 -740 -741  0
-762 740  0
-762 741  0
-763 747 748  0
763 -747  0
763 -748  0
764 -752 -753  0
-764 752  0
-764 753  0
765 -756 -757  0
-765 756  0
-765 757  0
-766 -16 761  0
766 16  0
766 -761  0
-767 -16 762  0
767 16  0
767 -762  0
768 -763 615  0
-768 763  0
-768 -615  0
-769 -16 764  0
769 16  0
769 -764  0
-770 -16 765  0
770 16  0
770 -765  0
771 -766 -738  0
-771 766  0
-771 738  0
772 -739 -767  0
-772 739  0
-772 767  0
-773 728 768  0
773 -728  0
773 -768  0
774 -769 -754  0
-774 769  0
-774 754  0
775 -755 -770  0
-775 755  0
-775 770  0
-776 12 771  0
776 -12  0
776 -771  0
-777 -12 772  0
777 12  0
777 -772  0
-778 12 772  0
778 -12  0
778 -772  0
-779 -12 771  0
779 12  0
779 -771  0
-780 12 774  0
780 -12  0
780 -774  0
-781 -12 775  0
781 12  0
781 -775  0
-782 12 775  0
782 -12  0
782 -775  0
-783 -12 774  0
783 12  0
783 -774  0
784 -776 -777  0
-784 776  0
-784 777  0
785 -778 -779  0
-785 778  0
-785 779  0
786 -780 -781  0
-786 780  0
-786 781  0
787 -782 -783  0
-787 782  0
-787 783  0
-788 784 -362  0
788 -784  0
788 362  0
-789 785 -362  0
789 -785  0
789 362  0
-790 786 -362  0
790 -786  0
790 362  0
-791 787 -362  0
791 -787  0
791 362  0
792 -735 -788  0
-792 735  0
-792 788  0
793 -742 -789  0
-793 742  0
-793 789  0
794 -751 -790  0
-794 751  0
-794 790  0
795 -791 -758  0
-795 791  0
-795 758  0
-796 792 552  0
796 -792  0
796 -552  0
-797 793 -552  0
797 -793  0
797 552  0
-798 794 552  0
798 -794  0
798 -552  0
-799 795 -552  0
799 -795  0
799 552  0
800 -796 -797  0
-800 796  0
-800 797  0
801 -798 -799  0
-801 798  0
-801 799  0
-802 -2 800  0
802 2  0
802 -800  0
-803 2 800  0
803 -2  0
803 -800  0
-804 -437 800  0
804 437  0
804 -800  0
-805 2 801  0
805 -2  0
805 -801  0
-806 -2 801  0
806 2  0
806 -801  0
-807 -437 801  0
807 437  0
807 -801  0
808 -802 -743  0
-808 802  0
-808 743  0
809 -803 -744  0
-809 803  0
-809 744  0
810 -805 -759  0
-810 805  0
-810 759  0
811 -760 -806  0
-811 760  0
-811 806  0
-812 -5 808  0
812 5  0
812 -808  0
-813 5 809  0
813 -5  0
813 -809  0
-814 -5 809  0
814 5  0
814 -809  0
-815 5 808  0
815 -5  0
815 -808  0
-816 -5 810  0
816 5  0
816 -810  0
-817 5 811  0
817 -5  0
817 -811  0
-818 -5 811  0
818 5  0
818 -811  0
-819 5 810  0
819 -5  0
819 -810  0
820 -812 -813  0
-820 812  0
-820 813  0
821 -814 -815  0
-821 814  0
-821 815  0
822 -816 -817  0
-822 816  0
-822 817  0
823 -818 -819  0
-823 818  0
-823 819  0
-824 437 820  0
824 -437  0
824 -820  0
-825 437 821  0
825 -437  0
825 -821  0
-826 437 822  0
826 -437  0
826 -822  0
-827 823 437  0
827 -823  0
827 -437  0
828 -824 -804  0
-828 824  0
-828 804  0
829 -745 -825  0
-829 745  0
-829 825  0
830 -750 -826  0
-830 750  0
-830 826  0
831 -827 -807  0
-831 827  0
-831 807  0
-832 828 553  0
832 -828  0
832 -553  0
-833 -553 829  0
833 553  0
833 -829  0
-834 -553 830  0
834 553  0
834 -830  0
-835 831 553  0
835 -831  0
835 -553  0
836 -832 -833  0
-836 832  0
-836 833  0
837 -834 -835  0
-837 834  0
-837 835  0
-838 836 746  0
838 -836  0
838 -746  0
-839 454 836  0
839 -454  0
839 -836  0
-840 5 836  0
840 -5  0
840 -836  0
-841 -5 836  0
841 5  0
841 -836  0
842 5 -837  0
-842 -5  0
-842 837  0
843 -5 -837  0
-843 5  0
-843 837  0
-844 454 837  0
844 -454  0
844 -837  0
-845 837 746  0
845 -837  0
845 -746  0
-846 -4 840  0
846 4  0
846 -840  0
-847 4 841  0
847 -4  0
847 -841  0
-848 -4 841  0
848 4  0
848 -841  0
-849 4 840  0
849 -4  0
849 -840  0
-850 4 842  0
850 -4  0
850 -842  0
-851 -4 843  0
851 4  0
851 -843  0
-852 4 843  0
852 -4  0
852 -843  0
-853 -4 842  0
853 4  0
853 -842  0
854 -846 -847  0
-854 846  0
-854 847  0
855 -848 -849  0
-855 848  0
-855 849  0
856 -850 -851  0
-856 850  0
-856 851  0
857 -852 -853  0
-857 852  0
-857 853  0
-858 -454 854  0
858 454  0
858 -854  0
-859 457 855  0
859 -457  0
859 -855  0
860 -454 -856  0
-860 454  0
-860 856  0
-861 -454 857  0
861 454  0
861 -857  0
862 -839 -858  0
-862 839  0
-862 858  0
-863 859 -555  0
863 -859  0
863 555  0
-864 859 555  0
864 -859  0
864 -555  0
-865 555 860  0
865 -555  0
865 -860  0
866 -844 -861  0
-866 844  0
-866 861  0
-867 860 -555  0
867 -860  0
867 555  0
-868 862 555  0
868 -862  0
868 -555  0
-869 862 -555  0
869 -862  0
869 555  0
-870 -555 866  0
870 555  0
870 -866  0
-871 555 866  0
871 -555  0
871 -866  0
872 -868 -863  0
-872 868  0
-872 863  0
873 -869 -864  0
-873 869  0
-873 864  0
874 -865 -870  0
-874 865  0
-874 870  0
875 -871 -867  0
-875 871  0
-875 867  0
-876 872 -746  0
876 -872  0
876 746  0
-877 749 873  0
877 -749  0
877 -873  0
878 -874 -746  0
-878 874  0
-878 746  0
-879 -746 875  0
879 746  0
879 -875  0
880 -838 -876  0
-880 838  0
-880 876  0
-881 -773 877  0
881 773  0
881 -877  0
-882 -773 878  0
882 773  0
882 -878  0
883 -879 -845  0
-883 879  0
-883 845  0
-884 880 773  0
884 -880  0
884 -773  0
-885 883 773  0
885 -883  0
885 -773  0
886 -884 -881  0
-886 884  0
-886 881  0
887 -882 -885  0
-887 882  0
-887 885  0
-888 700 886  0
888 -700  0
888 -886  0
-889 -700 887  0
889 700  0
889 -887  0
890 -888 -889  0
-890 888  0
-890 889  0
